\* Bay_Assignment *\
Minimize
obj_fun: 9000 w_1 + 4250 x_1A_A_1 + 141666.666667 x_1A_A_10 + 425000 x_1A_A_11
 + 425000 x_1A_A_12 + 425000 x_1A_A_13 + 425000 x_1A_A_14 + 425000 x_1A_A_15
 + 21250 x_1A_A_2 + 63750 x_1A_A_3 + 63750 x_1A_A_4 + 85000 x_1A_A_5
 + 85000 x_1A_A_6 + 113333.333333 x_1A_A_7 + 113333.333333 x_1A_A_8
 + 141666.666667 x_1A_A_9 + 283.333333333 x_1A_B_1 + 4250 x_1A_B_10
 + 283.333333333 x_1A_B_2 + 850 x_1A_B_3 + 850 x_1A_B_4
 + 1204.16666667 x_1A_B_5 + 1204.16666667 x_1A_B_6 + 1629.16666667 x_1A_B_7
 + 1629.16666667 x_1A_B_8 + 4250 x_1A_B_9 + 4250 x_1D_A_1
 + 141666.666667 x_1D_A_10 + 425000 x_1D_A_11 + 425000 x_1D_A_12
 + 425000 x_1D_A_13 + 425000 x_1D_A_14 + 425000 x_1D_A_15 + 21250 x_1D_A_2
 + 63750 x_1D_A_3 + 63750 x_1D_A_4 + 85000 x_1D_A_5 + 85000 x_1D_A_6
 + 113333.333333 x_1D_A_7 + 113333.333333 x_1D_A_8 + 141666.666667 x_1D_A_9
 + 283.333333333 x_1D_B_1 + 4250 x_1D_B_10 + 283.333333333 x_1D_B_2
 + 850 x_1D_B_3 + 850 x_1D_B_4 + 1204.16666667 x_1D_B_5
 + 1204.16666667 x_1D_B_6 + 1629.16666667 x_1D_B_7 + 1629.16666667 x_1D_B_8
 + 4250 x_1D_B_9 + 21250 x_1P_A_1 + 141666.666667 x_1P_A_10 + 425000 x_1P_A_11
 + 425000 x_1P_A_12 + 425000 x_1P_A_13 + 425000 x_1P_A_14 + 425000 x_1P_A_15
 + 21250 x_1P_A_2 + 63750 x_1P_A_3 + 63750 x_1P_A_4 + 85000 x_1P_A_5
 + 85000 x_1P_A_6 + 113333.333333 x_1P_A_7 + 113333.333333 x_1P_A_8
 + 141666.666667 x_1P_A_9 + 283.333333333 x_1P_B_1 + 4250 x_1P_B_10
 + 283.333333333 x_1P_B_2 + 850 x_1P_B_3 + 850 x_1P_B_4
 + 1204.16666667 x_1P_B_5 + 1204.16666667 x_1P_B_6 + 1629.16666667 x_1P_B_7
 + 1629.16666667 x_1P_B_8 + 4250 x_1P_B_9 + 12750 x_1_A_1 + 425000 x_1_A_10
 + 1275000 x_1_A_11 + 1275000 x_1_A_12 + 1275000 x_1_A_13 + 1275000 x_1_A_14
 + 1275000 x_1_A_15 + 63750 x_1_A_2 + 191250 x_1_A_3 + 191250 x_1_A_4
 + 255000 x_1_A_5 + 255000 x_1_A_6 + 340000 x_1_A_7 + 340000 x_1_A_8
 + 425000 x_1_A_9 + 850 x_1_B_1 + 12750 x_1_B_10 + 850 x_1_B_2 + 2550 x_1_B_3
 + 2550 x_1_B_4 + 3612.5 x_1_B_5 + 3612.5 x_1_B_6 + 4887.5 x_1_B_7
 + 4887.5 x_1_B_8 + 12750 x_1_B_9 + 41550 x_2_A_1 + 277000 x_2_A_10
 + 831000 x_2_A_11 + 831000 x_2_A_12 + 831000 x_2_A_13 + 831000 x_2_A_14
 + 831000 x_2_A_15 + 41550 x_2_A_2 + 124650 x_2_A_3 + 124650 x_2_A_4
 + 166200 x_2_A_5 + 166200 x_2_A_6 + 221600 x_2_A_7 + 221600 x_2_A_8
 + 277000 x_2_A_9 + 554 x_2_B_1 + 8310 x_2_B_10 + 554 x_2_B_2 + 1662 x_2_B_3
 + 1662 x_2_B_4 + 2354.5 x_2_B_5 + 2354.5 x_2_B_6 + 3185.5 x_2_B_7
 + 3185.5 x_2_B_8 + 8310 x_2_B_9 + 81600 x_3_A_1 + 544000 x_3_A_10
 + 1632000 x_3_A_11 + 1632000 x_3_A_12 + 1632000 x_3_A_13 + 1632000 x_3_A_14
 + 1632000 x_3_A_15 + 81600 x_3_A_2 + 244800 x_3_A_3 + 244800 x_3_A_4
 + 326400 x_3_A_5 + 326400 x_3_A_6 + 435200 x_3_A_7 + 435200 x_3_A_8
 + 544000 x_3_A_9 + 1088 x_3_B_1 + 16320 x_3_B_10 + 1088 x_3_B_2
 + 3264 x_3_B_3 + 3264 x_3_B_4 + 4624 x_3_B_5 + 4624 x_3_B_6 + 6256 x_3_B_7
 + 6256 x_3_B_8 + 16320 x_3_B_9
Subject To
AdjacencyConstraint_Ter:B_Bay:1_Flights:1&3: x_1_B_1 + x_3_B_3 = 0
AdjacencyConstraint_Ter:B_Bay:1_Flights:1A&3: x_1A_B_1 + x_3_B_3 = 0
AdjacencyConstraint_Ter:B_Bay:1_Flights:1D&3: x_1D_B_1 + x_3_B_3 = 0
AdjacencyConstraint_Ter:B_Bay:1_Flights:1P&3: x_1P_B_1 + x_3_B_3 = 0
AdjacencyConstraint_Ter:B_Bay:2_Flights:1&3: x_1_B_2 + x_3_B_4 = 0
AdjacencyConstraint_Ter:B_Bay:2_Flights:1A&3: x_1A_B_2 + x_3_B_4 = 0
AdjacencyConstraint_Ter:B_Bay:2_Flights:1D&3: x_1D_B_2 + x_3_B_4 = 0
AdjacencyConstraint_Ter:B_Bay:2_Flights:1P&3: x_1P_B_2 + x_3_B_4 = 0
AircraftConstraint_Ter:A_Bay:10_Flight:1: x_1_A_10 = 0
AircraftConstraint_Ter:A_Bay:10_Flight:1A: x_1A_A_10 = 0
AircraftConstraint_Ter:A_Bay:10_Flight:1D: x_1D_A_10 = 0
AircraftConstraint_Ter:A_Bay:10_Flight:1P: x_1P_A_10 = 0
AircraftConstraint_Ter:A_Bay:10_Flight:2: x_2_A_10 = 0
AircraftConstraint_Ter:A_Bay:10_Flight:3: x_3_A_10 = 0
AircraftConstraint_Ter:A_Bay:11_Flight:3: x_3_A_11 = 0
AircraftConstraint_Ter:A_Bay:12_Flight:3: x_3_A_12 = 0
AircraftConstraint_Ter:A_Bay:13_Flight:3: x_3_A_13 = 0
AircraftConstraint_Ter:A_Bay:14_Flight:3: x_3_A_14 = 0
AircraftConstraint_Ter:A_Bay:15_Flight:3: x_3_A_15 = 0
AircraftConstraint_Ter:A_Bay:1_Flight:3: x_3_A_1 = 0
AircraftConstraint_Ter:A_Bay:2_Flight:3: x_3_A_2 = 0
AircraftConstraint_Ter:A_Bay:3_Flight:3: x_3_A_3 = 0
AircraftConstraint_Ter:A_Bay:4_Flight:3: x_3_A_4 = 0
AircraftConstraint_Ter:A_Bay:5_Flight:1: x_1_A_5 = 0
AircraftConstraint_Ter:A_Bay:5_Flight:1A: x_1A_A_5 = 0
AircraftConstraint_Ter:A_Bay:5_Flight:1D: x_1D_A_5 = 0
AircraftConstraint_Ter:A_Bay:5_Flight:1P: x_1P_A_5 = 0
AircraftConstraint_Ter:A_Bay:5_Flight:2: x_2_A_5 = 0
AircraftConstraint_Ter:A_Bay:5_Flight:3: x_3_A_5 = 0
AircraftConstraint_Ter:A_Bay:6_Flight:1: x_1_A_6 = 0
AircraftConstraint_Ter:A_Bay:6_Flight:1A: x_1A_A_6 = 0
AircraftConstraint_Ter:A_Bay:6_Flight:1D: x_1D_A_6 = 0
AircraftConstraint_Ter:A_Bay:6_Flight:1P: x_1P_A_6 = 0
AircraftConstraint_Ter:A_Bay:6_Flight:2: x_2_A_6 = 0
AircraftConstraint_Ter:A_Bay:6_Flight:3: x_3_A_6 = 0
AircraftConstraint_Ter:A_Bay:7_Flight:1: x_1_A_7 = 0
AircraftConstraint_Ter:A_Bay:7_Flight:1A: x_1A_A_7 = 0
AircraftConstraint_Ter:A_Bay:7_Flight:1D: x_1D_A_7 = 0
AircraftConstraint_Ter:A_Bay:7_Flight:1P: x_1P_A_7 = 0
AircraftConstraint_Ter:A_Bay:7_Flight:2: x_2_A_7 = 0
AircraftConstraint_Ter:A_Bay:7_Flight:3: x_3_A_7 = 0
AircraftConstraint_Ter:A_Bay:8_Flight:1: x_1_A_8 = 0
AircraftConstraint_Ter:A_Bay:8_Flight:1A: x_1A_A_8 = 0
AircraftConstraint_Ter:A_Bay:8_Flight:1D: x_1D_A_8 = 0
AircraftConstraint_Ter:A_Bay:8_Flight:1P: x_1P_A_8 = 0
AircraftConstraint_Ter:A_Bay:8_Flight:2: x_2_A_8 = 0
AircraftConstraint_Ter:A_Bay:8_Flight:3: x_3_A_8 = 0
AircraftConstraint_Ter:A_Bay:9_Flight:1: x_1_A_9 = 0
AircraftConstraint_Ter:A_Bay:9_Flight:1A: x_1A_A_9 = 0
AircraftConstraint_Ter:A_Bay:9_Flight:1D: x_1D_A_9 = 0
AircraftConstraint_Ter:A_Bay:9_Flight:1P: x_1P_A_9 = 0
AircraftConstraint_Ter:A_Bay:9_Flight:2: x_2_A_9 = 0
AircraftConstraint_Ter:A_Bay:9_Flight:3: x_3_A_9 = 0
AircraftConstraint_Ter:B_Bay:10_Flight:3: x_3_B_10 = 0
AircraftConstraint_Ter:B_Bay:5_Flight:3: x_3_B_5 = 0
AircraftConstraint_Ter:B_Bay:6_Flight:3: x_3_B_6 = 0
AircraftConstraint_Ter:B_Bay:7_Flight:3: x_3_B_7 = 0
AircraftConstraint_Ter:B_Bay:8_Flight:3: x_3_B_8 = 0
AircraftConstraint_Ter:B_Bay:9_Flight:3: x_3_B_9 = 0
AssignmentConstraintFull_Flight:1: w_1 + x_1_A_1 + x_1_A_10 + x_1_A_11
 + x_1_A_12 + x_1_A_13 + x_1_A_14 + x_1_A_15 + x_1_A_2 + x_1_A_3 + x_1_A_4
 + x_1_A_5 + x_1_A_6 + x_1_A_7 + x_1_A_8 + x_1_A_9 + x_1_B_1 + x_1_B_10
 + x_1_B_2 + x_1_B_3 + x_1_B_4 + x_1_B_5 + x_1_B_6 + x_1_B_7 + x_1_B_8
 + x_1_B_9 = 1
AssignmentConstraintSplit_Flight:1A: - w_1 + x_1A_A_1 + x_1A_A_10 + x_1A_A_11
 + x_1A_A_12 + x_1A_A_13 + x_1A_A_14 + x_1A_A_15 + x_1A_A_2 + x_1A_A_3
 + x_1A_A_4 + x_1A_A_5 + x_1A_A_6 + x_1A_A_7 + x_1A_A_8 + x_1A_A_9 + x_1A_B_1
 + x_1A_B_10 + x_1A_B_2 + x_1A_B_3 + x_1A_B_4 + x_1A_B_5 + x_1A_B_6 + x_1A_B_7
 + x_1A_B_8 + x_1A_B_9 = 0
AssignmentConstraintSplit_Flight:1D: - w_1 + x_1D_A_1 + x_1D_A_10 + x_1D_A_11
 + x_1D_A_12 + x_1D_A_13 + x_1D_A_14 + x_1D_A_15 + x_1D_A_2 + x_1D_A_3
 + x_1D_A_4 + x_1D_A_5 + x_1D_A_6 + x_1D_A_7 + x_1D_A_8 + x_1D_A_9 + x_1D_B_1
 + x_1D_B_10 + x_1D_B_2 + x_1D_B_3 + x_1D_B_4 + x_1D_B_5 + x_1D_B_6 + x_1D_B_7
 + x_1D_B_8 + x_1D_B_9 = 0
AssignmentConstraintSplit_Flight:1P: - w_1 + x_1P_A_1 + x_1P_A_10 + x_1P_A_11
 + x_1P_A_12 + x_1P_A_13 + x_1P_A_14 + x_1P_A_15 + x_1P_A_2 + x_1P_A_3
 + x_1P_A_4 + x_1P_A_5 + x_1P_A_6 + x_1P_A_7 + x_1P_A_8 + x_1P_A_9 + x_1P_B_1
 + x_1P_B_10 + x_1P_B_2 + x_1P_B_3 + x_1P_B_4 + x_1P_B_5 + x_1P_B_6 + x_1P_B_7
 + x_1P_B_8 + x_1P_B_9 = 0
AssignmentConstraint_Flight:2: x_2_A_1 + x_2_A_10 + x_2_A_11 + x_2_A_12
 + x_2_A_13 + x_2_A_14 + x_2_A_15 + x_2_A_2 + x_2_A_3 + x_2_A_4 + x_2_A_5
 + x_2_A_6 + x_2_A_7 + x_2_A_8 + x_2_A_9 + x_2_B_1 + x_2_B_10 + x_2_B_2
 + x_2_B_3 + x_2_B_4 + x_2_B_5 + x_2_B_6 + x_2_B_7 + x_2_B_8 + x_2_B_9 = 1
AssignmentConstraint_Flight:3: x_3_A_1 + x_3_A_10 + x_3_A_11 + x_3_A_12
 + x_3_A_13 + x_3_A_14 + x_3_A_15 + x_3_A_2 + x_3_A_3 + x_3_A_4 + x_3_A_5
 + x_3_A_6 + x_3_A_7 + x_3_A_8 + x_3_A_9 + x_3_B_1 + x_3_B_10 + x_3_B_2
 + x_3_B_3 + x_3_B_4 + x_3_B_5 + x_3_B_6 + x_3_B_7 + x_3_B_8 + x_3_B_9 = 1
ParkingConstraint_Ter:A_Bay:1_Flight:1P: x_1P_A_1 = 0
ParkingConstraint_Ter:A_Bay:2_Flight:1P: x_1P_A_2 = 0
ParkingConstraint_Ter:A_Bay:3_Flight:1P: x_1P_A_3 = 0
ParkingConstraint_Ter:A_Bay:4_Flight:1P: x_1P_A_4 = 0
ParkingConstraint_Ter:B_Bay:1_Flight:1P: x_1P_B_1 = 0
ParkingConstraint_Ter:B_Bay:2_Flight:1P: x_1P_B_2 = 0
ParkingConstraint_Ter:B_Bay:3_Flight:1P: x_1P_B_3 = 0
ParkingConstraint_Ter:B_Bay:4_Flight:1P: x_1P_B_4 = 0
ParkingConstraint_Ter:B_Bay:5_Flight:1P: x_1P_B_5 = 0
ParkingConstraint_Ter:B_Bay:6_Flight:1P: x_1P_B_6 = 0
ParkingConstraint_Ter:B_Bay:7_Flight:1P: x_1P_B_7 = 0
ParkingConstraint_Ter:B_Bay:8_Flight:1P: x_1P_B_8 = 0
TimeConstraint_Ter:A_Bay:10_Flights:1&2: x_1_A_10 + x_2_A_10 <= 1
TimeConstraint_Ter:A_Bay:10_Flights:1D&2: x_1D_A_10 + x_2_A_10 <= 1
TimeConstraint_Ter:A_Bay:10_Flights:1P&2: x_1P_A_10 + x_2_A_10 <= 1
TimeConstraint_Ter:A_Bay:11_Flights:1&2: x_1_A_11 + x_2_A_11 <= 1
TimeConstraint_Ter:A_Bay:11_Flights:1D&2: x_1D_A_11 + x_2_A_11 <= 1
TimeConstraint_Ter:A_Bay:11_Flights:1P&2: x_1P_A_11 + x_2_A_11 <= 1
TimeConstraint_Ter:A_Bay:12_Flights:1&2: x_1_A_12 + x_2_A_12 <= 1
TimeConstraint_Ter:A_Bay:12_Flights:1D&2: x_1D_A_12 + x_2_A_12 <= 1
TimeConstraint_Ter:A_Bay:12_Flights:1P&2: x_1P_A_12 + x_2_A_12 <= 1
TimeConstraint_Ter:A_Bay:13_Flights:1&2: x_1_A_13 + x_2_A_13 <= 1
TimeConstraint_Ter:A_Bay:13_Flights:1D&2: x_1D_A_13 + x_2_A_13 <= 1
TimeConstraint_Ter:A_Bay:13_Flights:1P&2: x_1P_A_13 + x_2_A_13 <= 1
TimeConstraint_Ter:A_Bay:14_Flights:1&2: x_1_A_14 + x_2_A_14 <= 1
TimeConstraint_Ter:A_Bay:14_Flights:1D&2: x_1D_A_14 + x_2_A_14 <= 1
TimeConstraint_Ter:A_Bay:14_Flights:1P&2: x_1P_A_14 + x_2_A_14 <= 1
TimeConstraint_Ter:A_Bay:15_Flights:1&2: x_1_A_15 + x_2_A_15 <= 1
TimeConstraint_Ter:A_Bay:15_Flights:1D&2: x_1D_A_15 + x_2_A_15 <= 1
TimeConstraint_Ter:A_Bay:15_Flights:1P&2: x_1P_A_15 + x_2_A_15 <= 1
TimeConstraint_Ter:A_Bay:1_Flights:1&2: x_1_A_1 + x_2_A_1 <= 1
TimeConstraint_Ter:A_Bay:1_Flights:1D&2: x_1D_A_1 + x_2_A_1 <= 1
TimeConstraint_Ter:A_Bay:1_Flights:1P&2: x_1P_A_1 + x_2_A_1 <= 1
TimeConstraint_Ter:A_Bay:2_Flights:1&2: x_1_A_2 + x_2_A_2 <= 1
TimeConstraint_Ter:A_Bay:2_Flights:1D&2: x_1D_A_2 + x_2_A_2 <= 1
TimeConstraint_Ter:A_Bay:2_Flights:1P&2: x_1P_A_2 + x_2_A_2 <= 1
TimeConstraint_Ter:A_Bay:3_Flights:1&2: x_1_A_3 + x_2_A_3 <= 1
TimeConstraint_Ter:A_Bay:3_Flights:1D&2: x_1D_A_3 + x_2_A_3 <= 1
TimeConstraint_Ter:A_Bay:3_Flights:1P&2: x_1P_A_3 + x_2_A_3 <= 1
TimeConstraint_Ter:A_Bay:4_Flights:1&2: x_1_A_4 + x_2_A_4 <= 1
TimeConstraint_Ter:A_Bay:4_Flights:1D&2: x_1D_A_4 + x_2_A_4 <= 1
TimeConstraint_Ter:A_Bay:4_Flights:1P&2: x_1P_A_4 + x_2_A_4 <= 1
TimeConstraint_Ter:A_Bay:5_Flights:1&2: x_1_A_5 + x_2_A_5 <= 1
TimeConstraint_Ter:A_Bay:5_Flights:1D&2: x_1D_A_5 + x_2_A_5 <= 1
TimeConstraint_Ter:A_Bay:5_Flights:1P&2: x_1P_A_5 + x_2_A_5 <= 1
TimeConstraint_Ter:A_Bay:6_Flights:1&2: x_1_A_6 + x_2_A_6 <= 1
TimeConstraint_Ter:A_Bay:6_Flights:1D&2: x_1D_A_6 + x_2_A_6 <= 1
TimeConstraint_Ter:A_Bay:6_Flights:1P&2: x_1P_A_6 + x_2_A_6 <= 1
TimeConstraint_Ter:A_Bay:7_Flights:1&2: x_1_A_7 + x_2_A_7 <= 1
TimeConstraint_Ter:A_Bay:7_Flights:1D&2: x_1D_A_7 + x_2_A_7 <= 1
TimeConstraint_Ter:A_Bay:7_Flights:1P&2: x_1P_A_7 + x_2_A_7 <= 1
TimeConstraint_Ter:A_Bay:8_Flights:1&2: x_1_A_8 + x_2_A_8 <= 1
TimeConstraint_Ter:A_Bay:8_Flights:1D&2: x_1D_A_8 + x_2_A_8 <= 1
TimeConstraint_Ter:A_Bay:8_Flights:1P&2: x_1P_A_8 + x_2_A_8 <= 1
TimeConstraint_Ter:A_Bay:9_Flights:1&2: x_1_A_9 + x_2_A_9 <= 1
TimeConstraint_Ter:A_Bay:9_Flights:1D&2: x_1D_A_9 + x_2_A_9 <= 1
TimeConstraint_Ter:A_Bay:9_Flights:1P&2: x_1P_A_9 + x_2_A_9 <= 1
TimeConstraint_Ter:B_Bay:10_Flights:1&2: x_1_B_10 + x_2_B_10 <= 1
TimeConstraint_Ter:B_Bay:10_Flights:1D&2: x_1D_B_10 + x_2_B_10 <= 1
TimeConstraint_Ter:B_Bay:10_Flights:1P&2: x_1P_B_10 + x_2_B_10 <= 1
TimeConstraint_Ter:B_Bay:1_Flights:1&2: x_1_B_1 + x_2_B_1 <= 1
TimeConstraint_Ter:B_Bay:1_Flights:1D&2: x_1D_B_1 + x_2_B_1 <= 1
TimeConstraint_Ter:B_Bay:1_Flights:1P&2: x_1P_B_1 + x_2_B_1 <= 1
TimeConstraint_Ter:B_Bay:2_Flights:1&2: x_1_B_2 + x_2_B_2 <= 1
TimeConstraint_Ter:B_Bay:2_Flights:1D&2: x_1D_B_2 + x_2_B_2 <= 1
TimeConstraint_Ter:B_Bay:2_Flights:1P&2: x_1P_B_2 + x_2_B_2 <= 1
TimeConstraint_Ter:B_Bay:3_Flights:1&2: x_1_B_3 + x_2_B_3 <= 1
TimeConstraint_Ter:B_Bay:3_Flights:1D&2: x_1D_B_3 + x_2_B_3 <= 1
TimeConstraint_Ter:B_Bay:3_Flights:1P&2: x_1P_B_3 + x_2_B_3 <= 1
TimeConstraint_Ter:B_Bay:4_Flights:1&2: x_1_B_4 + x_2_B_4 <= 1
TimeConstraint_Ter:B_Bay:4_Flights:1D&2: x_1D_B_4 + x_2_B_4 <= 1
TimeConstraint_Ter:B_Bay:4_Flights:1P&2: x_1P_B_4 + x_2_B_4 <= 1
TimeConstraint_Ter:B_Bay:5_Flights:1&2: x_1_B_5 + x_2_B_5 <= 1
TimeConstraint_Ter:B_Bay:5_Flights:1D&2: x_1D_B_5 + x_2_B_5 <= 1
TimeConstraint_Ter:B_Bay:5_Flights:1P&2: x_1P_B_5 + x_2_B_5 <= 1
TimeConstraint_Ter:B_Bay:6_Flights:1&2: x_1_B_6 + x_2_B_6 <= 1
TimeConstraint_Ter:B_Bay:6_Flights:1D&2: x_1D_B_6 + x_2_B_6 <= 1
TimeConstraint_Ter:B_Bay:6_Flights:1P&2: x_1P_B_6 + x_2_B_6 <= 1
TimeConstraint_Ter:B_Bay:7_Flights:1&2: x_1_B_7 + x_2_B_7 <= 1
TimeConstraint_Ter:B_Bay:7_Flights:1D&2: x_1D_B_7 + x_2_B_7 <= 1
TimeConstraint_Ter:B_Bay:7_Flights:1P&2: x_1P_B_7 + x_2_B_7 <= 1
TimeConstraint_Ter:B_Bay:8_Flights:1&2: x_1_B_8 + x_2_B_8 <= 1
TimeConstraint_Ter:B_Bay:8_Flights:1D&2: x_1D_B_8 + x_2_B_8 <= 1
TimeConstraint_Ter:B_Bay:8_Flights:1P&2: x_1P_B_8 + x_2_B_8 <= 1
TimeConstraint_Ter:B_Bay:9_Flights:1&2: x_1_B_9 + x_2_B_9 <= 1
TimeConstraint_Ter:B_Bay:9_Flights:1D&2: x_1D_B_9 + x_2_B_9 <= 1
TimeConstraint_Ter:B_Bay:9_Flights:1P&2: x_1P_B_9 + x_2_B_9 <= 1
Binaries
w_1
x_1A_A_1
x_1A_A_10
x_1A_A_11
x_1A_A_12
x_1A_A_13
x_1A_A_14
x_1A_A_15
x_1A_A_2
x_1A_A_3
x_1A_A_4
x_1A_A_5
x_1A_A_6
x_1A_A_7
x_1A_A_8
x_1A_A_9
x_1A_B_1
x_1A_B_10
x_1A_B_2
x_1A_B_3
x_1A_B_4
x_1A_B_5
x_1A_B_6
x_1A_B_7
x_1A_B_8
x_1A_B_9
x_1D_A_1
x_1D_A_10
x_1D_A_11
x_1D_A_12
x_1D_A_13
x_1D_A_14
x_1D_A_15
x_1D_A_2
x_1D_A_3
x_1D_A_4
x_1D_A_5
x_1D_A_6
x_1D_A_7
x_1D_A_8
x_1D_A_9
x_1D_B_1
x_1D_B_10
x_1D_B_2
x_1D_B_3
x_1D_B_4
x_1D_B_5
x_1D_B_6
x_1D_B_7
x_1D_B_8
x_1D_B_9
x_1P_A_1
x_1P_A_10
x_1P_A_11
x_1P_A_12
x_1P_A_13
x_1P_A_14
x_1P_A_15
x_1P_A_2
x_1P_A_3
x_1P_A_4
x_1P_A_5
x_1P_A_6
x_1P_A_7
x_1P_A_8
x_1P_A_9
x_1P_B_1
x_1P_B_10
x_1P_B_2
x_1P_B_3
x_1P_B_4
x_1P_B_5
x_1P_B_6
x_1P_B_7
x_1P_B_8
x_1P_B_9
x_1_A_1
x_1_A_10
x_1_A_11
x_1_A_12
x_1_A_13
x_1_A_14
x_1_A_15
x_1_A_2
x_1_A_3
x_1_A_4
x_1_A_5
x_1_A_6
x_1_A_7
x_1_A_8
x_1_A_9
x_1_B_1
x_1_B_10
x_1_B_2
x_1_B_3
x_1_B_4
x_1_B_5
x_1_B_6
x_1_B_7
x_1_B_8
x_1_B_9
x_2_A_1
x_2_A_10
x_2_A_11
x_2_A_12
x_2_A_13
x_2_A_14
x_2_A_15
x_2_A_2
x_2_A_3
x_2_A_4
x_2_A_5
x_2_A_6
x_2_A_7
x_2_A_8
x_2_A_9
x_2_B_1
x_2_B_10
x_2_B_2
x_2_B_3
x_2_B_4
x_2_B_5
x_2_B_6
x_2_B_7
x_2_B_8
x_2_B_9
x_3_A_1
x_3_A_10
x_3_A_11
x_3_A_12
x_3_A_13
x_3_A_14
x_3_A_15
x_3_A_2
x_3_A_3
x_3_A_4
x_3_A_5
x_3_A_6
x_3_A_7
x_3_A_8
x_3_A_9
x_3_B_1
x_3_B_10
x_3_B_2
x_3_B_3
x_3_B_4
x_3_B_5
x_3_B_6
x_3_B_7
x_3_B_8
x_3_B_9
End
